; SWAP3 DUP4 DUP1 SWAP2 DUP4 SWAP1 => DUP1 DUP3 DUP2 SWAP6
(set-option :produce-proofs true)
; 
(set-info :status unknown)
(declare-fun storage_t ((_ BitVec 256) (_ BitVec 256) (_ BitVec 256) (_ BitVec 256) Int (_ BitVec 256)) (_ BitVec 256))
(declare-fun storage_s ((_ BitVec 256) (_ BitVec 256) (_ BitVec 256) (_ BitVec 256) Int (_ BitVec 256)) (_ BitVec 256))
(declare-fun exc_halt_t (Int) Bool)
(declare-fun exc_halt_s (Int) Bool)
(declare-fun sc_t (Int) (_ BitVec 6))
(declare-fun stack_t ((_ BitVec 256) (_ BitVec 256) (_ BitVec 256) (_ BitVec 256) Int (_ BitVec 6)) (_ BitVec 256))
(declare-fun stack_s ((_ BitVec 256) (_ BitVec 256) (_ BitVec 256) (_ BitVec 256) Int (_ BitVec 6)) (_ BitVec 256))
(declare-fun sc_s (Int) (_ BitVec 6))
(declare-fun used_gas_t ((_ BitVec 256) (_ BitVec 256) (_ BitVec 256) (_ BitVec 256) Int) Int)
(declare-fun used_gas_s ((_ BitVec 256) (_ BitVec 256) (_ BitVec 256) (_ BitVec 256) Int) Int)
(assert
 (exists ((x_0 (_ BitVec 256)) (x_1 (_ BitVec 256)) (x_2 (_ BitVec 256)) (x_3 (_ BitVec 256)) )(let (($x2991 (forall ((w (_ BitVec 256)) )(let ((?x7442 (storage_t x_0 x_1 x_2 x_3 4 w)))
 (let ((?x3557 (storage_s x_0 x_1 x_2 x_3 6 w)))
 (= ?x3557 ?x7442))))
 ))
 (let (($x3723 (exc_halt_t 4)))
 (let (($x772 (exc_halt_s 6)))
 (let (($x3566 (= $x772 $x3723)))
 (let (($x6350 (forall ((n (_ BitVec 6)) )(let ((?x3757 (sc_t 4)))
 (let (($x6373 (bvsle ?x3757 n)))
 (let ((?x5842 (stack_t x_0 x_1 x_2 x_3 4 n)))
 (let ((?x3683 (stack_s x_0 x_1 x_2 x_3 6 n)))
 (let (($x5312 (= ?x3683 ?x5842)))
 (or $x5312 $x6373)))))))
 ))
 (let ((?x3757 (sc_t 4)))
 (let ((?x926 (sc_s 6)))
 (let (($x2954 (= ?x926 ?x3757)))
 (let ((?x3247 (used_gas_t x_0 x_1 x_2 x_3 0)))
 (let ((?x3318 (used_gas_s x_0 x_1 x_2 x_3 0)))
 (let (($x3351 (= ?x3318 ?x3247)))
 (let (($x5514 (forall ((w (_ BitVec 256)) )(let ((?x3684 (storage_t x_0 x_1 x_2 x_3 0 w)))
 (let ((?x3660 (storage_s x_0 x_1 x_2 x_3 0 w)))
 (= ?x3660 ?x3684))))
 ))
 (let (($x56 (exc_halt_t 0)))
 (let (($x57 (exc_halt_s 0)))
 (let (($x58 (= $x57 $x56)))
 (let (($x7267 (forall ((n (_ BitVec 6)) )(let ((?x63 (sc_t 0)))
 (let (($x7266 (bvsle ?x63 n)))
 (let ((?x3616 (stack_t x_0 x_1 x_2 x_3 0 n)))
 (let ((?x5888 (stack_s x_0 x_1 x_2 x_3 0 n)))
 (let (($x3617 (= ?x5888 ?x3616)))
 (or $x3617 $x7266)))))))
 ))
 (let ((?x63 (sc_t 0)))
 (let ((?x72 (sc_s 0)))
 (let (($x73 (= ?x72 ?x63)))
 (let (($x9994 (= $x3723 (or (exc_halt_t 3) (not (bvsle (_ bv0 6) (bvadd (_ bv57 6) (sc_t 3))))))))
 (let (($x2556 (forall ((w (_ BitVec 256)) )(let ((?x6346 (storage_t x_0 x_1 x_2 x_3 3 w)))
 (let ((?x7442 (storage_t x_0 x_1 x_2 x_3 4 w)))
 (= ?x7442 ?x6346))))
 ))
 (let (($x6971 (forall ((n (_ BitVec 6)) )(let ((?x1188 (stack_t x_0 x_1 x_2 x_3 3 n)))
 (let ((?x5842 (stack_t x_0 x_1 x_2 x_3 4 n)))
 (let (($x2227 (= ?x5842 ?x1188)))
 (or $x2227 (bvsle (bvadd (_ bv57 6) (sc_t 3)) n))))))
 ))
 (let ((?x2012 (sc_t 3)))
 (let (($x2149 (= ?x3757 ?x2012)))
 (let ((?x3524 (used_gas_t x_0 x_1 x_2 x_3 4)))
 (let (($x2157 (= ?x3524 (+ 3 (used_gas_t x_0 x_1 x_2 x_3 3)))))
 (let ((?x2321 (bvadd (_ bv62 6) ?x2012)))
 (let ((?x2957 (stack_t x_0 x_1 x_2 x_3 3 ?x2321)))
 (let (($x2144 (= (stack_t x_0 x_1 x_2 x_3 4 (bvadd (_ bv62 6) ?x3757)) ?x2957)))
 (let (($x2154 (= (stack_t x_0 x_1 x_2 x_3 4 (bvadd (_ bv61 6) ?x3757)) (stack_t x_0 x_1 x_2 x_3 3 (bvadd (_ bv61 6) ?x2012)))))
 (let ((?x3307 (bvadd (_ bv60 6) ?x2012)))
 (let ((?x3306 (stack_t x_0 x_1 x_2 x_3 3 ?x3307)))
 (let ((?x2370 (stack_t x_0 x_1 x_2 x_3 4 (bvadd (_ bv60 6) ?x3757))))
 (let (($x539 (= (stack_t x_0 x_1 x_2 x_3 4 (bvadd (_ bv59 6) ?x3757)) (stack_t x_0 x_1 x_2 x_3 3 (bvadd (_ bv59 6) ?x2012)))))
 (let (($x2673 (= (stack_t x_0 x_1 x_2 x_3 4 (bvadd (_ bv58 6) ?x3757)) (stack_t x_0 x_1 x_2 x_3 3 (bvadd (_ bv58 6) ?x2012)))))
 (let ((?x8024 (bvadd (_ bv63 6) ?x2012)))
 (let ((?x8327 (stack_t x_0 x_1 x_2 x_3 3 ?x8024)))
 (let ((?x2874 (bvadd (_ bv63 6) ?x3757)))
 (let ((?x3301 (stack_t x_0 x_1 x_2 x_3 4 ?x2874)))
 (let (($x2496 (not (bvsle (_ bv0 6) (bvadd (_ bv62 6) (sc_t 2))))))
 (let (($x2326 (not (= ((_ extract 6 6) (bvadd (_ bv1 7) (concat (_ bv0 1) (sc_t 2)))) (_ bv0 1)))))
 (let (($x903 (exc_halt_t 2)))
 (let (($x10336 (exc_halt_t 3)))
 (let (($x8060 (forall ((w (_ BitVec 256)) )(let ((?x1190 (storage_t x_0 x_1 x_2 x_3 2 w)))
 (let ((?x6346 (storage_t x_0 x_1 x_2 x_3 3 w)))
 (= ?x6346 ?x1190))))
 ))
 (let (($x2965 (forall ((n (_ BitVec 6)) )(let ((?x7198 (stack_t x_0 x_1 x_2 x_3 2 n)))
 (let ((?x1188 (stack_t x_0 x_1 x_2 x_3 3 n)))
 (or (bvsle (bvadd (_ bv62 6) (sc_t 2)) n) (= ?x1188 ?x7198)))))
 ))
 (let (($x8655 (= ?x2012 (bvadd (_ bv1 6) (sc_t 2)))))
 (let ((?x6623 (used_gas_t x_0 x_1 x_2 x_3 3)))
 (let (($x8026 (= ?x6623 (+ 3 (used_gas_t x_0 x_1 x_2 x_3 2)))))
 (let ((?x4056 (sc_t 2)))
 (let ((?x2158 (bvadd (_ bv63 6) ?x4056)))
 (let ((?x1875 (stack_t x_0 x_1 x_2 x_3 2 ?x2158)))
 (let ((?x8342 (bvadd (_ bv62 6) ?x4056)))
 (let ((?x6509 (stack_t x_0 x_1 x_2 x_3 2 ?x8342)))
 (let (($x551 (= ?x8327 ?x6509)))
 (let (($x1920 (exc_halt_t 1)))
 (let (($x1881 (not (= ((_ extract 6 6) (bvadd (_ bv1 7) (concat (_ bv0 1) (sc_t 1)))) (_ bv0 1)))))
 (let (($x6822 (forall ((w (_ BitVec 256)) )(let ((?x3742 (storage_t x_0 x_1 x_2 x_3 1 w)))
 (let ((?x1190 (storage_t x_0 x_1 x_2 x_3 2 w)))
 (= ?x1190 ?x3742))))
 ))
 (let (($x6939 (forall ((n (_ BitVec 6)) )(let ((?x3699 (stack_t x_0 x_1 x_2 x_3 1 n)))
 (let ((?x7198 (stack_t x_0 x_1 x_2 x_3 2 n)))
 (let (($x8013 (= ?x7198 ?x3699)))
 (or (bvsle (bvadd (_ bv61 6) (sc_t 1)) n) $x8013)))))
 ))
 (let (($x2343 (= ?x4056 (bvadd (_ bv1 6) (sc_t 1)))))
 (let ((?x4297 (used_gas_t x_0 x_1 x_2 x_3 2)))
 (let (($x4407 (= ?x4297 (+ 3 (used_gas_t x_0 x_1 x_2 x_3 1)))))
 (let ((?x4023 (sc_t 1)))
 (let ((?x3198 (bvadd (_ bv63 6) ?x4023)))
 (let ((?x2933 (stack_t x_0 x_1 x_2 x_3 1 ?x3198)))
 (let (($x4851 (= (stack_t x_0 x_1 x_2 x_3 2 (bvadd (_ bv62 6) ?x4023)) (stack_t x_0 x_1 x_2 x_3 1 (bvadd (_ bv62 6) ?x4023)))))
 (let ((?x7560 (bvadd (_ bv61 6) ?x4023)))
 (let ((?x2631 (stack_t x_0 x_1 x_2 x_3 1 ?x7560)))
 (let (($x3039 (not (= ((_ extract 6 6) (bvadd (_ bv1 7) (concat (_ bv0 1) ?x63))) (_ bv0 1)))))
 (let (($x2925 (= $x1920 (or $x56 $x3039 (not (bvsle (_ bv0 6) (bvadd (_ bv63 6) ?x63)))))))
 (let (($x945 (forall ((w (_ BitVec 256)) )(let ((?x3684 (storage_t x_0 x_1 x_2 x_3 0 w)))
 (let ((?x3742 (storage_t x_0 x_1 x_2 x_3 1 w)))
 (= ?x3742 ?x3684))))
 ))
 (let (($x6784 (forall ((n (_ BitVec 6)) )(let ((?x3616 (stack_t x_0 x_1 x_2 x_3 0 n)))
 (let ((?x3699 (stack_t x_0 x_1 x_2 x_3 1 n)))
 (or (bvsle (bvadd (_ bv63 6) (sc_t 0)) n) (= ?x3699 ?x3616)))))
 ))
 (let (($x9398 (= ?x4023 (bvadd (_ bv1 6) ?x63))))
 (let ((?x3928 (used_gas_t x_0 x_1 x_2 x_3 1)))
 (let (($x8262 (= ?x3928 (+ 3 ?x3247))))
 (let ((?x2932 (bvadd (_ bv63 6) ?x63)))
 (let ((?x228 (stack_t x_0 x_1 x_2 x_3 0 ?x2932)))
 (let (($x130 (= (stack_t x_0 x_1 x_2 x_3 1 ?x2932) ?x228)))
 (let (($x9120 (= ?x2933 ?x228)))
 (let (($x5353 (= $x772 (or (exc_halt_s 5) (not (bvsle (_ bv0 6) (bvadd (_ bv62 6) (sc_s 5))))))))
 (let (($x3173 (forall ((w (_ BitVec 256)) )(let ((?x3545 (storage_s x_0 x_1 x_2 x_3 5 w)))
 (let ((?x3557 (storage_s x_0 x_1 x_2 x_3 6 w)))
 (= ?x3557 ?x3545))))
 ))
 (let (($x9514 (forall ((n (_ BitVec 6)) )(let ((?x3327 (stack_s x_0 x_1 x_2 x_3 5 n)))
 (let ((?x3683 (stack_s x_0 x_1 x_2 x_3 6 n)))
 (let (($x2725 (= ?x3683 ?x3327)))
 (or $x2725 (bvsle (bvadd (_ bv62 6) (sc_s 5)) n))))))
 ))
 (let ((?x805 (sc_s 5)))
 (let (($x2305 (= ?x926 ?x805)))
 (let (($x2203 (= (used_gas_s x_0 x_1 x_2 x_3 6) (+ 3 (used_gas_s x_0 x_1 x_2 x_3 5)))))
 (let ((?x6858 (bvadd (_ bv63 6) ?x805)))
 (let ((?x3477 (stack_s x_0 x_1 x_2 x_3 5 ?x6858)))
 (let ((?x3376 (bvadd (_ bv62 6) ?x805)))
 (let ((?x3443 (stack_s x_0 x_1 x_2 x_3 5 ?x3376)))
 (let ((?x2941 (stack_s x_0 x_1 x_2 x_3 6 (bvadd (_ bv63 6) ?x926))))
 (let (($x2395 (not (= ((_ extract 6 6) (bvadd (_ bv1 7) (concat (_ bv0 1) (sc_s 4)))) (_ bv0 1)))))
 (let (($x64 (exc_halt_s 4)))
 (let (($x3979 (exc_halt_s 5)))
 (let (($x3696 (forall ((w (_ BitVec 256)) )(let ((?x2749 (storage_s x_0 x_1 x_2 x_3 4 w)))
 (let ((?x3545 (storage_s x_0 x_1 x_2 x_3 5 w)))
 (= ?x3545 ?x2749))))
 ))
 (let (($x8322 (forall ((n (_ BitVec 6)) )(let ((?x3765 (stack_s x_0 x_1 x_2 x_3 4 n)))
 (let ((?x3327 (stack_s x_0 x_1 x_2 x_3 5 n)))
 (let (($x3380 (= ?x3327 ?x3765)))
 (or $x3380 (bvsle (bvadd (_ bv60 6) (sc_s 4)) n))))))
 ))
 (let (($x2789 (= ?x805 (bvadd (_ bv1 6) (sc_s 4)))))
 (let ((?x3448 (used_gas_s x_0 x_1 x_2 x_3 5)))
 (let (($x1360 (= ?x3448 (+ 3 (used_gas_s x_0 x_1 x_2 x_3 4)))))
 (let ((?x4305 (sc_s 4)))
 (let ((?x477 (bvadd (_ bv63 6) ?x4305)))
 (let ((?x1359 (stack_s x_0 x_1 x_2 x_3 4 ?x477)))
 (let ((?x3433 (bvadd (_ bv62 6) ?x4305)))
 (let ((?x153 (stack_s x_0 x_1 x_2 x_3 4 ?x3433)))
 (let ((?x988 (bvadd (_ bv61 6) ?x4305)))
 (let ((?x9653 (stack_s x_0 x_1 x_2 x_3 4 ?x988)))
 (let ((?x8826 (bvadd (_ bv60 6) ?x4305)))
 (let ((?x10556 (stack_s x_0 x_1 x_2 x_3 4 ?x8826)))
 (let (($x1162 (= $x64 (or (exc_halt_s 3) (not (bvsle (_ bv0 6) (bvadd (_ bv61 6) (sc_s 3))))))))
 (let (($x3639 (forall ((w (_ BitVec 256)) )(let ((?x3632 (storage_s x_0 x_1 x_2 x_3 3 w)))
 (let ((?x2749 (storage_s x_0 x_1 x_2 x_3 4 w)))
 (= ?x2749 ?x3632))))
 ))
 (let (($x841 (forall ((n (_ BitVec 6)) )(let ((?x7900 (stack_s x_0 x_1 x_2 x_3 3 n)))
 (let ((?x3765 (stack_s x_0 x_1 x_2 x_3 4 n)))
 (let (($x454 (= ?x3765 ?x7900)))
 (or $x454 (bvsle (bvadd (_ bv61 6) (sc_s 3)) n))))))
 ))
 (let ((?x2662 (used_gas_s x_0 x_1 x_2 x_3 4)))
 (let ((?x275 (sc_s 3)))
 (let ((?x2773 (bvadd (_ bv62 6) ?x275)))
 (let ((?x3739 (stack_s x_0 x_1 x_2 x_3 3 ?x2773)))
 (let (($x4331 (not (bvsle (_ bv0 6) (bvadd (_ bv63 6) (sc_s 2))))))
 (let (($x247 (exc_halt_s 2)))
 (let (($x6019 (or $x247 $x4331 (not (= ((_ extract 6 6) (bvadd (_ bv1 7) (concat (_ bv0 1) (sc_s 2)))) (_ bv0 1))))))
 (let (($x292 (exc_halt_s 3)))
 (let (($x3738 (forall ((w (_ BitVec 256)) )(let ((?x2766 (storage_s x_0 x_1 x_2 x_3 2 w)))
 (let ((?x3632 (storage_s x_0 x_1 x_2 x_3 3 w)))
 (= ?x3632 ?x2766))))
 ))
 (let (($x7525 (forall ((n (_ BitVec 6)) )(let ((?x218 (sc_s 2)))
 (let ((?x3563 (bvadd (_ bv63 6) ?x218)))
 (let (($x8136 (bvsle ?x3563 n)))
 (let ((?x1193 (stack_s x_0 x_1 x_2 x_3 2 n)))
 (let ((?x7900 (stack_s x_0 x_1 x_2 x_3 3 n)))
 (let (($x3736 (= ?x7900 ?x1193)))
 (or $x3736 $x8136))))))))
 ))
 (let ((?x3295 (used_gas_s x_0 x_1 x_2 x_3 3)))
 (let (($x1782 (= ?x3295 (+ 3 (used_gas_s x_0 x_1 x_2 x_3 2)))))
 (let ((?x218 (sc_s 2)))
 (let ((?x3563 (bvadd (_ bv63 6) ?x218)))
 (let ((?x3906 (stack_s x_0 x_1 x_2 x_3 2 ?x3563)))
 (let (($x8796 (not (= ((_ extract 6 6) (bvadd (_ bv1 7) (concat (_ bv0 1) (sc_s 1)))) (_ bv0 1)))))
 (let (($x189 (exc_halt_s 1)))
 (let (($x8508 (forall ((w (_ BitVec 256)) )(let ((?x6917 (storage_s x_0 x_1 x_2 x_3 1 w)))
 (let ((?x2766 (storage_s x_0 x_1 x_2 x_3 2 w)))
 (= ?x2766 ?x6917))))
 ))
 (let (($x2571 (forall ((n (_ BitVec 6)) )(let ((?x6949 (stack_s x_0 x_1 x_2 x_3 1 n)))
 (let ((?x1193 (stack_s x_0 x_1 x_2 x_3 2 n)))
 (let (($x7040 (= ?x1193 ?x6949)))
 (or (bvsle (bvadd (_ bv60 6) (sc_s 1)) n) $x7040)))))
 ))
 (let (($x6573 (= ?x218 (bvadd (_ bv1 6) (sc_s 1)))))
 (let ((?x2514 (used_gas_s x_0 x_1 x_2 x_3 2)))
 (let (($x234 (= ?x2514 (+ 3 (used_gas_s x_0 x_1 x_2 x_3 1)))))
 (let ((?x154 (sc_s 1)))
 (let ((?x3584 (bvadd (_ bv63 6) ?x154)))
 (let ((?x3240 (stack_s x_0 x_1 x_2 x_3 1 ?x3584)))
 (let (($x9211 (= (stack_s x_0 x_1 x_2 x_3 2 ?x3584) ?x3240)))
 (let ((?x3271 (bvadd (_ bv62 6) ?x154)))
 (let ((?x3546 (stack_s x_0 x_1 x_2 x_3 1 ?x3271)))
 (let (($x3519 (= (stack_s x_0 x_1 x_2 x_3 2 ?x3271) ?x3546)))
 (let ((?x7893 (bvadd (_ bv61 6) ?x154)))
 (let ((?x9282 (stack_s x_0 x_1 x_2 x_3 1 ?x7893)))
 (let ((?x941 (bvadd (_ bv60 6) ?x154)))
 (let ((?x7317 (stack_s x_0 x_1 x_2 x_3 1 ?x941)))
 (let (($x6272 (forall ((w (_ BitVec 256)) )(let ((?x3660 (storage_s x_0 x_1 x_2 x_3 0 w)))
 (let ((?x6917 (storage_s x_0 x_1 x_2 x_3 1 w)))
 (= ?x6917 ?x3660))))
 ))
 (let (($x1148 (forall ((n (_ BitVec 6)) )(let ((?x5888 (stack_s x_0 x_1 x_2 x_3 0 n)))
 (let ((?x6949 (stack_s x_0 x_1 x_2 x_3 1 n)))
 (let (($x3252 (= ?x6949 ?x5888)))
 (or (bvsle (bvadd (_ bv60 6) (sc_s 0)) n) $x3252)))))
 ))
 (let (($x3865 (= ?x154 ?x72)))
 (let ((?x6564 (used_gas_s x_0 x_1 x_2 x_3 1)))
 (let (($x3575 (= ?x6564 (+ 3 ?x3318))))
 (let (($x3235 (forall ((w (_ BitVec 256)) )(let ((?x3660 (storage_s x_0 x_1 x_2 x_3 0 w)))
 (= ?x3660 (_ bv0 256))))
 ))
 (let (($x6755 (= ?x3318 0)))
 (let (($x3253 (not $x57)))
 (let (($x7630 (= (stack_s x_0 x_1 x_2 x_3 0 (_ bv3 6)) x_3)))
 (let (($x6779 (= (stack_s x_0 x_1 x_2 x_3 0 (_ bv2 6)) x_2)))
 (let (($x3625 (= (stack_s x_0 x_1 x_2 x_3 0 (_ bv1 6)) x_1)))
 (let (($x6825 (= (stack_s x_0 x_1 x_2 x_3 0 (_ bv0 6)) x_0)))
 (let (($x7429 (= ?x72 (_ bv4 6))))
 (and $x7429 $x6825 $x3625 $x6779 $x7630 $x3253 $x6755 $x3235 (= ?x3240 (stack_s x_0 x_1 x_2 x_3 0 (bvadd (_ bv60 6) ?x72))) (= ?x7317 (stack_s x_0 x_1 x_2 x_3 0 (bvadd (_ bv63 6) ?x72))) (= ?x9282 (stack_s x_0 x_1 x_2 x_3 0 (bvadd (_ bv61 6) ?x72))) (= ?x3546 (stack_s x_0 x_1 x_2 x_3 0 (bvadd (_ bv62 6) ?x72))) $x3575 $x3865 $x1148 $x6272 (= $x189 (or $x57 (not (bvsle (_ bv0 6) (bvadd (_ bv60 6) ?x72))))) (= ?x3906 ?x7317) (= (stack_s x_0 x_1 x_2 x_3 2 ?x941) ?x7317) (= (stack_s x_0 x_1 x_2 x_3 2 ?x7893) ?x9282) $x3519 $x9211 $x234 $x6573 $x2571 $x8508 (= $x247 (or $x189 (not (bvsle (_ bv0 6) ?x941)) $x8796)) (= (stack_s x_0 x_1 x_2 x_3 3 (bvadd (_ bv63 6) ?x275)) ?x3906) (= (stack_s x_0 x_1 x_2 x_3 3 ?x3563) ?x3906) $x1782 (= ?x275 (bvadd (_ bv1 6) ?x218)) $x7525 $x3738 (= $x292 $x6019) (= ?x1359 (stack_s x_0 x_1 x_2 x_3 3 (bvadd (_ bv61 6) ?x275))) (= ?x9653 (stack_s x_0 x_1 x_2 x_3 3 (bvadd (_ bv63 6) ?x275))) (= ?x153 ?x3739) (= ?x2662 (+ 3 ?x3295)) (= ?x4305 ?x275) $x841 $x3639 $x1162 (= ?x3477 ?x10556) (= (stack_s x_0 x_1 x_2 x_3 5 ?x8826) ?x10556) (= (stack_s x_0 x_1 x_2 x_3 5 ?x988) ?x9653) (= (stack_s x_0 x_1 x_2 x_3 5 ?x3433) ?x153) (= (stack_s x_0 x_1 x_2 x_3 5 ?x477) ?x1359) $x1360 $x2789 $x8322 $x3696 (= $x3979 (or $x64 (not (bvsle (_ bv0 6) ?x8826)) $x2395)) (= ?x2941 ?x3443) (= (stack_s x_0 x_1 x_2 x_3 6 (bvadd (_ bv62 6) ?x926)) ?x3477) $x2203 $x2305 $x9514 $x3173 $x5353 $x9120 $x130 $x8262 $x9398 $x6784 $x945 $x2925 (= ?x1875 ?x2631) (= (stack_t x_0 x_1 x_2 x_3 2 ?x7560) ?x2631) $x4851 (= (stack_t x_0 x_1 x_2 x_3 2 ?x3198) ?x2933) $x4407 $x2343 $x6939 $x6822 (= $x903 (or $x1881 $x1920 (not (bvsle (_ bv0 6) ?x7560)))) $x551 (= (stack_t x_0 x_1 x_2 x_3 3 ?x8342) ?x6509) (= (stack_t x_0 x_1 x_2 x_3 3 ?x2158) ?x1875) $x8026 $x8655 $x2965 $x8060 (= $x10336 (or $x903 $x2326 $x2496)) (= ?x3301 (stack_t x_0 x_1 x_2 x_3 3 (bvadd (_ bv57 6) ?x2012))) (= (stack_t x_0 x_1 x_2 x_3 4 (bvadd (_ bv57 6) ?x3757)) ?x8327) $x2673 $x539 (= ?x2370 ?x3306) $x2154 $x2144 $x2157 $x2149 $x6971 $x2556 $x9994 $x73 $x7267 $x58 $x5514 $x3351 (not (and $x2954 $x6350 $x3566 $x2991)))))))))))))))))))))))))))))))))))))))))))))))))))))))))))))))))))))))))))))))))))))))))))))))))))))))))))))))))))))))))))))))))))))))))))))))))))))))))))))))
 )
(check-sat)
(get-proof)
